FourierSAT_Github_AIJ/benchmarks/MAXSAT_benchmarks/crafted/3/bipartite/maxcut-140-630-0.7/maxcut-140-630-0.7-13.cnf
c strEdges: 189  randomEdges: 441 
c degrees:  2  3 
c girth: 10 max: 8.032766  
c Hgirth mixed MAXCUT instance
c generated from an undirected graph
c to solve unweighted MaxCut
p cnf 140 1260
95 22 0
-95 -22 0
95 138 0
-95 -138 0
95 4 0
-95 -4 0
12 66 0
-12 -66 0
12 105 0
-12 -105 0
12 140 0
-12 -140 0
123 105 0
-123 -105 0
123 82 0
-123 -82 0
123 88 0
-123 -88 0
40 48 0
-40 -48 0
40 17 0
-40 -17 0
44 122 0
-44 -122 0
44 80 0
-44 -80 0
129 81 0
-129 -81 0
129 6 0
-129 -6 0
29 104 0
-29 -104 0
29 97 0
-29 -97 0
29 50 0
-29 -50 0
114 35 0
-114 -35 0
114 50 0
-114 -50 0
86 4 0
-86 -4 0
86 47 0
-86 -47 0
128 24 0
-128 -24 0
128 81 0
-128 -81 0
128 2 0
-128 -2 0
68 121 0
-68 -121 0
68 119 0
-68 -119 0
68 135 0
-68 -135 0
28 98 0
-28 -98 0
28 109 0
-28 -109 0
28 47 0
-28 -47 0
111 82 0
-111 -82 0
111 22 0
-111 -22 0
111 121 0
-111 -121 0
115 70 0
-115 -70 0
115 113 0
-115 -113 0
115 121 0
-115 -121 0
96 18 0
-96 -18 0
96 105 0
-96 -105 0
25 43 0
-25 -43 0
25 8 0
-25 -8 0
25 130 0
-25 -130 0
125 14 0
-125 -14 0
125 37 0
-125 -37 0
125 11 0
-125 -11 0
7 101 0
-7 -101 0
7 2 0
-7 -2 0
7 54 0
-7 -54 0
117 91 0
-117 -91 0
117 83 0
-117 -83 0
27 32 0
-27 -32 0
27 139 0
-27 -139 0
27 35 0
-27 -35 0
127 135 0
-127 -135 0
127 14 0
-127 -14 0
106 74 0
-106 -74 0
106 131 0
-106 -131 0
23 132 0
-23 -132 0
23 14 0
-23 -14 0
94 140 0
-94 -140 0
94 20 0
-94 -20 0
71 59 0
-71 -59 0
71 80 0
-71 -80 0
71 103 0
-71 -103 0
90 58 0
-90 -58 0
90 18 0
-90 -18 0
1 138 0
-1 -138 0
1 54 0
-1 -54 0
1 136 0
-1 -136 0
78 47 0
-78 -47 0
78 112 0
-78 -112 0
93 107 0
-93 -107 0
93 81 0
-93 -81 0
93 98 0
-93 -98 0
41 118 0
-41 -118 0
41 46 0
-41 -46 0
41 56 0
-41 -56 0
63 84 0
-63 -84 0
63 59 0
-63 -59 0
63 140 0
-63 -140 0
72 97 0
-72 -97 0
72 73 0
-72 -73 0
72 43 0
-72 -43 0
76 131 0
-76 -131 0
76 16 0
-76 -16 0
76 91 0
-76 -91 0
49 11 0
-49 -11 0
49 85 0
-49 -85 0
49 56 0
-49 -56 0
108 34 0
-108 -34 0
108 136 0
-108 -136 0
26 109 0
-26 -109 0
26 85 0
-26 -85 0
26 74 0
-26 -74 0
21 46 0
-21 -46 0
21 79 0
-21 -79 0
21 83 0
-21 -83 0
60 75 0
-60 -75 0
60 91 0
-60 -91 0
60 119 0
-60 -119 0
13 30 0
-13 -30 0
13 112 0
-13 -112 0
13 130 0
-13 -130 0
57 80 0
-57 -80 0
57 9 0
-57 -9 0
102 15 0
-102 -15 0
102 122 0
-102 -122 0
65 20 0
-65 -20 0
65 104 0
-65 -104 0
64 16 0
-64 -16 0
64 18 0
-64 -18 0
51 79 0
-51 -79 0
51 97 0
-51 -97 0
77 112 0
-77 -112 0
77 19 0
-77 -19 0
77 75 0
-77 -75 0
62 54 0
-62 -54 0
62 48 0
-62 -48 0
62 32 0
-62 -32 0
3 9 0
-3 -9 0
3 79 0
-3 -79 0
3 4 0
-3 -4 0
42 110 0
-42 -110 0
42 70 0
-42 -70 0
42 118 0
-42 -118 0
120 83 0
-120 -83 0
120 132 0
-120 -132 0
120 17 0
-120 -17 0
31 8 0
-31 -8 0
31 116 0
-31 -116 0
31 103 0
-31 -103 0
67 37 0
-67 -37 0
67 33 0
-67 -33 0
67 9 0
-67 -9 0
92 36 0
-92 -36 0
92 43 0
-92 -43 0
92 69 0
-92 -69 0
61 130 0
-61 -130 0
61 24 0
-61 -24 0
61 22 0
-61 -22 0
100 17 0
-100 -17 0
100 107 0
-100 -107 0
100 15 0
-100 -15 0
99 50 0
-99 -50 0
99 30 0
-99 -30 0
99 70 0
-99 -70 0
45 88 0
-45 -88 0
45 30 0
-45 -30 0
45 15 0
-45 -15 0
10 139 0
-10 -139 0
10 98 0
-10 -98 0
10 36 0
-10 -36 0
5 119 0
-5 -119 0
5 122 0
-5 -122 0
5 34 0
-5 -34 0
126 103 0
-126 -103 0
126 131 0
-126 -131 0
126 107 0
-126 -107 0
53 73 0
-53 -73 0
53 6 0
-53 -6 0
53 37 0
-53 -37 0
52 33 0
-52 -33 0
52 84 0
-52 -84 0
52 32 0
-52 -32 0
89 113 0
-89 -113 0
89 101 0
-89 -101 0
89 74 0
-89 -74 0
137 85 0
-137 -85 0
137 20 0
-137 -20 0
137 48 0
-137 -48 0
38 6 0
-38 -6 0
38 16 0
-38 -16 0
38 118 0
-38 -118 0
124 19 0
-124 -19 0
124 110 0
-124 -110 0
124 84 0
-124 -84 0
39 69 0
-39 -69 0
39 132 0
-39 -132 0
39 66 0
-39 -66 0
55 2 0
-55 -2 0
55 104 0
-55 -104 0
134 136 0
-134 -136 0
134 11 0
-134 -11 0
134 58 0
-134 -58 0
133 116 0
-133 -116 0
133 35 0
-133 -35 0
133 135 0
-133 -135 0
87 56 0
-87 -56 0
87 24 0
-87 -24 0
1 126 0
-1 -126 0
93 62 0
-93 -62 0
38 69 0
-38 -69 0
55 56 0
-55 -56 0
51 32 0
-51 -32 0
64 112 0
-64 -112 0
125 105 0
-125 -105 0
94 71 0
-94 -71 0
99 98 0
-99 -98 0
124 48 0
-124 -48 0
128 112 0
-128 -112 0
3 134 0
-3 -134 0
24 132 0
-24 -132 0
15 85 0
-15 -85 0
40 64 0
-40 -64 0
107 11 0
-107 -11 0
58 110 0
-58 -110 0
39 8 0
-39 -8 0
102 58 0
-102 -58 0
71 118 0
-71 -118 0
128 47 0
-128 -47 0
13 88 0
-13 -88 0
71 105 0
-71 -105 0
73 85 0
-73 -85 0
114 97 0
-114 -97 0
87 101 0
-87 -101 0
89 75 0
-89 -75 0
102 104 0
-102 -104 0
29 71 0
-29 -71 0
129 110 0
-129 -110 0
71 91 0
-71 -91 0
53 22 0
-53 -22 0
140 6 0
-140 -6 0
77 85 0
-77 -85 0
3 55 0
-3 -55 0
30 20 0
-30 -20 0
120 22 0
-120 -22 0
10 53 0
-10 -53 0
40 50 0
-40 -50 0
10 91 0
-10 -91 0
93 21 0
-93 -21 0
86 132 0
-86 -132 0
60 56 0
-60 -56 0
26 139 0
-26 -139 0
28 113 0
-28 -113 0
79 112 0
-79 -112 0
51 109 0
-51 -109 0
128 63 0
-128 -63 0
138 85 0
-138 -85 0
95 120 0
-95 -120 0
120 48 0
-120 -48 0
78 48 0
-78 -48 0
89 15 0
-89 -15 0
111 88 0
-111 -88 0
124 70 0
-124 -70 0
12 2 0
-12 -2 0
102 64 0
-102 -64 0
89 35 0
-89 -35 0
22 11 0
-22 -11 0
25 138 0
-25 -138 0
12 15 0
-12 -15 0
114 120 0
-114 -120 0
80 54 0
-80 -54 0
89 82 0
-89 -82 0
40 116 0
-40 -116 0
70 36 0
-70 -36 0
86 73 0
-86 -73 0
100 4 0
-100 -4 0
90 87 0
-90 -87 0
102 79 0
-102 -79 0
78 4 0
-78 -4 0
64 47 0
-64 -47 0
54 9 0
-54 -9 0
45 55 0
-45 -55 0
105 98 0
-105 -98 0
133 50 0
-133 -50 0
65 59 0
-65 -59 0
127 23 0
-127 -23 0
32 116 0
-32 -116 0
86 31 0
-86 -31 0
99 139 0
-99 -139 0
100 134 0
-100 -134 0
19 116 0
-19 -116 0
38 121 0
-38 -121 0
24 18 0
-24 -18 0
108 84 0
-108 -84 0
29 118 0
-29 -118 0
48 84 0
-48 -84 0
57 139 0
-57 -139 0
42 15 0
-42 -15 0
100 109 0
-100 -109 0
27 90 0
-27 -90 0
106 52 0
-106 -52 0
95 15 0
-95 -15 0
123 64 0
-123 -64 0
87 20 0
-87 -20 0
94 22 0
-94 -22 0
135 139 0
-135 -139 0
25 101 0
-25 -101 0
68 118 0
-68 -118 0
77 116 0
-77 -116 0
61 110 0
-61 -110 0
41 19 0
-41 -19 0
92 75 0
-92 -75 0
109 8 0
-109 -8 0
12 51 0
-12 -51 0
117 139 0
-117 -139 0
24 2 0
-24 -2 0
137 8 0
-137 -8 0
35 9 0
-35 -9 0
96 76 0
-96 -76 0
58 50 0
-58 -50 0
25 15 0
-25 -15 0
13 11 0
-13 -11 0
122 33 0
-122 -33 0
93 19 0
-93 -19 0
25 132 0
-25 -132 0
111 37 0
-111 -37 0
7 85 0
-7 -85 0
72 103 0
-72 -103 0
4 98 0
-4 -98 0
65 75 0
-65 -75 0
28 53 0
-28 -53 0
18 79 0
-18 -79 0
77 30 0
-77 -30 0
39 118 0
-39 -118 0
5 140 0
-5 -140 0
101 16 0
-101 -16 0
86 134 0
-86 -134 0
95 133 0
-95 -133 0
42 116 0
-42 -116 0
96 91 0
-96 -91 0
34 33 0
-34 -33 0
45 37 0
-45 -37 0
54 116 0
-54 -116 0
92 39 0
-92 -39 0
87 113 0
-87 -113 0
131 6 0
-131 -6 0
111 137 0
-111 -137 0
89 73 0
-89 -73 0
5 14 0
-5 -14 0
98 20 0
-98 -20 0
120 20 0
-120 -20 0
5 110 0
-5 -110 0
55 73 0
-55 -73 0
26 97 0
-26 -97 0
27 36 0
-27 -36 0
82 140 0
-82 -140 0
111 96 0
-111 -96 0
81 91 0
-81 -91 0
35 58 0
-35 -58 0
125 1 0
-125 -1 0
67 104 0
-67 -104 0
60 121 0
-60 -121 0
31 119 0
-31 -119 0
83 88 0
-83 -88 0
27 110 0
-27 -110 0
118 80 0
-118 -80 0
132 15 0
-132 -15 0
74 8 0
-74 -8 0
71 93 0
-71 -93 0
93 14 0
-93 -14 0
84 17 0
-84 -17 0
117 85 0
-117 -85 0
40 124 0
-40 -124 0
125 70 0
-125 -70 0
23 33 0
-23 -33 0
28 88 0
-28 -88 0
11 50 0
-11 -50 0
128 115 0
-128 -115 0
12 25 0
-12 -25 0
29 35 0
-29 -35 0
78 137 0
-78 -137 0
118 2 0
-118 -2 0
42 100 0
-42 -100 0
109 16 0
-109 -16 0
63 119 0
-63 -119 0
31 131 0
-31 -131 0
105 97 0
-105 -97 0
108 42 0
-108 -42 0
129 3 0
-129 -3 0
3 103 0
-3 -103 0
26 132 0
-26 -132 0
77 47 0
-77 -47 0
87 84 0
-87 -84 0
13 113 0
-13 -113 0
86 89 0
-86 -89 0
42 31 0
-42 -31 0
93 57 0
-93 -57 0
115 109 0
-115 -109 0
76 34 0
-76 -34 0
135 131 0
-135 -131 0
101 19 0
-101 -19 0
21 73 0
-21 -73 0
18 91 0
-18 -91 0
104 9 0
-104 -9 0
96 108 0
-96 -108 0
58 103 0
-58 -103 0
65 120 0
-65 -120 0
108 10 0
-108 -10 0
44 19 0
-44 -19 0
12 27 0
-12 -27 0
7 36 0
-7 -36 0
65 52 0
-65 -52 0
3 15 0
-3 -15 0
54 85 0
-54 -85 0
99 37 0
-99 -37 0
106 89 0
-106 -89 0
133 47 0
-133 -47 0
22 135 0
-22 -135 0
32 79 0
-32 -79 0
3 112 0
-3 -112 0
43 131 0
-43 -131 0
22 19 0
-22 -19 0
75 139 0
-75 -139 0
40 85 0
-40 -85 0
55 54 0
-55 -54 0
61 2 0
-61 -2 0
86 63 0
-86 -63 0
3 113 0
-3 -113 0
3 5 0
-3 -5 0
40 33 0
-40 -33 0
135 33 0
-135 -33 0
70 2 0
-70 -2 0
122 43 0
-122 -43 0
104 20 0
-104 -20 0
120 4 0
-120 -4 0
78 136 0
-78 -136 0
100 112 0
-100 -112 0
65 92 0
-65 -92 0
134 83 0
-134 -83 0
12 122 0
-12 -122 0
4 73 0
-4 -73 0
124 122 0
-124 -122 0
77 121 0
-77 -121 0
90 26 0
-90 -26 0
80 69 0
-80 -69 0
31 67 0
-31 -67 0
131 50 0
-131 -50 0
63 14 0
-63 -14 0
26 52 0
-26 -52 0
44 87 0
-44 -87 0
41 74 0
-41 -74 0
134 139 0
-134 -139 0
52 11 0
-52 -11 0
126 97 0
-126 -97 0
90 120 0
-90 -120 0
92 58 0
-92 -58 0
27 50 0
-27 -50 0
120 61 0
-120 -61 0
52 47 0
-52 -47 0
106 10 0
-106 -10 0
53 112 0
-53 -112 0
57 140 0
-57 -140 0
1 81 0
-1 -81 0
57 8 0
-57 -8 0
77 55 0
-77 -55 0
94 65 0
-94 -65 0
140 138 0
-140 -138 0
53 85 0
-53 -85 0
13 45 0
-13 -45 0
31 9 0
-31 -9 0
121 56 0
-121 -56 0
114 60 0
-114 -60 0
41 2 0
-41 -2 0
64 14 0
-64 -14 0
111 118 0
-111 -118 0
122 139 0
-122 -139 0
104 33 0
-104 -33 0
96 52 0
-96 -52 0
47 130 0
-47 -130 0
71 100 0
-71 -100 0
108 100 0
-108 -100 0
82 70 0
-82 -70 0
3 35 0
-3 -35 0
19 69 0
-19 -69 0
118 109 0
-118 -109 0
28 99 0
-28 -99 0
42 34 0
-42 -34 0
3 99 0
-3 -99 0
28 131 0
-28 -131 0
78 8 0
-78 -8 0
37 103 0
-37 -103 0
40 52 0
-40 -52 0
4 80 0
-4 -80 0
111 5 0
-111 -5 0
102 66 0
-102 -66 0
94 26 0
-94 -26 0
135 107 0
-135 -107 0
27 34 0
-27 -34 0
127 120 0
-127 -120 0
137 66 0
-137 -66 0
93 119 0
-93 -119 0
72 131 0
-72 -131 0
7 97 0
-7 -97 0
92 9 0
-92 -9 0
25 19 0
-25 -19 0
48 139 0
-48 -139 0
74 47 0
-74 -47 0
27 82 0
-27 -82 0
74 46 0
-74 -46 0
108 67 0
-108 -67 0
27 135 0
-27 -135 0
45 133 0
-45 -133 0
127 105 0
-127 -105 0
61 122 0
-61 -122 0
13 64 0
-13 -64 0
40 76 0
-40 -76 0
55 17 0
-55 -17 0
68 126 0
-68 -126 0
30 17 0
-30 -17 0
94 90 0
-94 -90 0
21 110 0
-21 -110 0
62 88 0
-62 -88 0
44 76 0
-44 -76 0
43 15 0
-43 -15 0
75 69 0
-75 -69 0
135 136 0
-135 -136 0
120 33 0
-120 -33 0
62 126 0
-62 -126 0
128 33 0
-128 -33 0
78 84 0
-78 -84 0
96 64 0
-96 -64 0
51 18 0
-51 -18 0
71 38 0
-71 -38 0
124 59 0
-124 -59 0
59 56 0
-59 -56 0
10 2 0
-10 -2 0
68 70 0
-68 -70 0
124 2 0
-124 -2 0
44 32 0
-44 -32 0
45 54 0
-45 -54 0
32 110 0
-32 -110 0
49 59 0
-49 -59 0
4 33 0
-4 -33 0
68 78 0
-68 -78 0
67 53 0
-67 -53 0
45 20 0
-45 -20 0
59 50 0
-59 -50 0
125 26 0
-125 -26 0
117 9 0
-117 -9 0
71 126 0
-71 -126 0
102 14 0
-102 -14 0
70 33 0
-70 -33 0
125 118 0
-125 -118 0
114 54 0
-114 -54 0
45 50 0
-45 -50 0
3 88 0
-3 -88 0
1 118 0
-1 -118 0
29 51 0
-29 -51 0
10 83 0
-10 -83 0
43 54 0
-43 -54 0
114 13 0
-114 -13 0
123 18 0
-123 -18 0
28 57 0
-28 -57 0
52 138 0
-52 -138 0
64 67 0
-64 -67 0
102 118 0
-102 -118 0
87 75 0
-87 -75 0
47 112 0
-47 -112 0
123 127 0
-123 -127 0
28 17 0
-28 -17 0
13 20 0
-13 -20 0
93 75 0
-93 -75 0
5 33 0
-5 -33 0
87 105 0
-87 -105 0
51 6 0
-51 -6 0
108 135 0
-108 -135 0
106 80 0
-106 -80 0
114 3 0
-114 -3 0
90 107 0
-90 -107 0
72 64 0
-72 -64 0
1 41 0
-1 -41 0
95 46 0
-95 -46 0
96 126 0
-96 -126 0
34 30 0
-34 -30 0
86 54 0
-86 -54 0
57 97 0
-57 -97 0
18 110 0
-18 -110 0
94 74 0
-94 -74 0
68 3 0
-68 -3 0
1 43 0
-1 -43 0
67 92 0
-67 -92 0
114 94 0
-114 -94 0
117 39 0
-117 -39 0
77 140 0
-77 -140 0
66 6 0
-66 -6 0
42 107 0
-42 -107 0
5 69 0
-5 -69 0
40 88 0
-40 -88 0
93 92 0
-93 -92 0
13 5 0
-13 -5 0
42 45 0
-42 -45 0
84 20 0
-84 -20 0
13 102 0
-13 -102 0
1 140 0
-1 -140 0
138 118 0
-138 -118 0
12 49 0
-12 -49 0
35 116 0
-35 -116 0
129 79 0
-129 -79 0
135 8 0
-135 -8 0
72 92 0
-72 -92 0
27 140 0
-27 -140 0
13 97 0
-13 -97 0
29 59 0
-29 -59 0
121 130 0
-121 -130 0
63 130 0
-63 -130 0
4 79 0
-4 -79 0
124 109 0
-124 -109 0
62 109 0
-62 -109 0
49 92 0
-49 -92 0
27 109 0
-27 -109 0
3 116 0
-3 -116 0
99 136 0
-99 -136 0
53 132 0
-53 -132 0
57 16 0
-57 -16 0
26 81 0
-26 -81 0
9 17 0
-9 -17 0
23 58 0
-23 -58 0
122 131 0
-122 -131 0
7 33 0
-7 -33 0
80 112 0
-80 -112 0
128 98 0
-128 -98 0
106 92 0
-106 -92 0
1 109 0
-1 -109 0
71 5 0
-71 -5 0
92 52 0
-92 -52 0
122 97 0
-122 -97 0
74 11 0
-74 -11 0
134 103 0
-134 -103 0
72 74 0
-72 -74 0
58 97 0
-58 -97 0
115 134 0
-115 -134 0
3 18 0
-3 -18 0
50 139 0
-50 -139 0
53 58 0
-53 -58 0
112 37 0
-112 -37 0
78 105 0
-78 -105 0
95 82 0
-95 -82 0
100 10 0
-100 -10 0
90 93 0
-90 -93 0
