FourierSAT_Github_AIJ/res/fs_1core/maxcut-140-630-0.7-13.cnf.txt
o 210
o 193
